36
120
96	3
95	2
88	2
87	1
85	1
84	1
82	1
81	2
76	2
75	1
74	3
73	1
72	2
70	1
69	1
68	1
65	1
63	1
62	1
58	1
54	1
52	2
46	1
43	2
42	2
41	1
40	1
39	1
38	1
35	1
33	3
31	1
28	1
27	1
26	1
24	1
